% Data file generated from RandomInstances/12_0.95_1.col DIMACS file
size = 12;

chi = 11;

adjacency = [|0,1,1,1,1,1,1,1,1,1,1,1,
|1,0,1,1,1,1,1,1,1,1,1,1,
|1,1,0,1,1,1,1,1,1,1,1,1,
|1,1,1,0,1,1,1,0,1,1,1,1,
|1,1,1,1,0,1,1,1,1,1,1,1,
|1,1,1,1,1,0,1,0,1,1,1,1,
|1,1,1,1,1,1,0,1,1,1,1,1,
|1,1,1,0,1,0,1,0,1,1,1,1,
|1,1,1,1,1,1,1,1,0,1,1,1,
|1,1,1,1,1,1,1,1,1,0,1,1,
|1,1,1,1,1,1,1,1,1,1,0,1,
|1,1,1,1,1,1,1,1,1,1,1,0,
|];